(set-logic HORN)

(declare-fun |state| ( Bool Bool Bool Bool Int Bool Bool Bool Bool Int ) Bool)

(assert
  (forall ( (A Bool) (B Bool) (C Bool) (D Bool) (E Int) (F Bool) (G Bool) (H Bool) (I Bool) (J Int) ) 
    (=>
      (and
        (and (= E 0)
     (or (not C) (not D))
     (or (not A) (not B))
     (not I)
     (not H)
     (not G)
     (not F)
     (not D)
     (not C)
     (not B)
     (not A)
     (= J 0))
      )
      (state A B C D E F G H I J)
    )
  )
)
(assert
  (forall ( (A Bool) (B Bool) (C Bool) (D Bool) (E Int) (F Bool) (G Bool) (H Bool) (I Bool) (J Int) (K Bool) (L Bool) (M Bool) (N Bool) (O Bool) (P Bool) (Q Int) (R Bool) (S Bool) (T Bool) (U Bool) (V Int) ) 
    (=>
      (and
        (state A B C D E F G H I J)
        (let ((a!1 (and (or (and (not T) U (not K) (not L)) (<= 3 E))
                (or (and T (not U) (not K) (not L)) (not (<= 3 E)))
                (= J V)))
      (a!2 (and (or (and (not T) (not U) L) (not (= E 1)))
                (or (and (not T) U L) (= E 1))
                (= J V)))
      (a!3 (and (or (and (<= E 3) (<= 2 E)) (and (not T) U K (not L)))
                (or (and T (not U) K (not L)) (not (<= E 3)) (not (<= 2 E)))
                (= J V)))
      (a!4 (and (or (and (not M) (not N) (not O) P) (<= 3 J))
                (or (and (not M) (not N) O (not P)) (not (<= 3 J)))
                (= E Q)))
      (a!5 (and (or (and N (not O) (not P)) (not (= J 1)))
                (or (and N (not O) P) (= J 1))
                (= E Q)))
      (a!6 (and (or (and (<= J 3) (<= 2 J)) (and M (not N) (not O) P))
                (or (and M (not N) O (not P)) (not (<= J 3)) (not (<= 2 J)))
                (= E Q)))
      (a!7 (and (or (and T U L) (not (<= 2 E)))
                (or (and (not T) (not U) K (not L)) (<= 2 E))
                (= J V)))
      (a!8 (and (or (and (not T) U L) (not (= E 4)))
                (or (and T (not U) L) (= E 4))
                (= J V)))
      (a!9 (and (or (and N O P) (not (<= 2 J)))
                (or (and M (not N) (not O) (not P)) (<= 2 J))
                (= E Q)))
      (a!10 (and (or (and N (not O) P) (not (= J 4)))
                 (or (and N O (not P)) (= J 4))
                 (= E Q))))
  (and (or (not S) A (not B) (not H) (not I) (and T U K (not L) (= J V)))
       (or (not S) A (not B) H I (and T (not U) K (not L) (= J V)))
       (or (not S) A B (not H) I (and T U (not K) (not L) (= V 3)))
       (or (not S) A B H I (and T (not U) (not K) (not L) (= V 1)))
       (or (not S) A (not B) (not H) I (and T U K (not L) (= V 0)))
       (or (not S) A B H (not I) a!1)
       (or (not S) A B (not H) (not I) a!2)
       (or (not S) A (not B) H (not I) a!3)
       (or (not R) (not C) D (not F) (not G) (and M (not N) O P (= E Q)))
       (or (not R) (not C) D F G (and M (not N) O (not P) (= E Q)))
       (or (not R) C D (not F) G (and (not M) (not N) O P (= Q 3)))
       (or (not R) C D F G (and (not M) (not N) O (not P) (= Q 1)))
       (or (not R) (not C) D (not F) G (and M (not N) O P (= Q 0)))
       (or (not R) C D F (not G) a!4)
       (or (not R) C D (not F) (not G) a!5)
       (or (not R) (not C) D F (not G) a!6)
       (or (not S) (not A) H I (and T (not U) L (= V 2)))
       (or (not S) (not A) (not H) I (and T U L (= V 4)))
       (or (not S) (not A) (not H) (not I) a!7)
       (or (not S) (not A) H (not I) a!8)
       (or (not R) (not D) F G (and N O (not P) (= Q 2)))
       (or (not R) (not D) (not F) G (and N O P (= Q 4)))
       (or (not R) (not D) (not F) (not G) a!9)
       (or (not R) (not D) F (not G) a!10)
       (or (not K) (not L))
       (or (not C) (not D))
       (or (not A) (not B))
       (or S (and (= J V) (= A L) (= B K) (= H U) (= I T)))
       (or R (and (= E Q) (= C M) (= D N) (= F P) (= G O)))
       (or (not M) (not N))
       (= R (not S))))
      )
      (state L K M N Q P O U T V)
    )
  )
)
(assert
  (forall ( (A Bool) (B Bool) (C Bool) (D Bool) (E Int) (F Bool) (G Bool) (H Bool) (I Bool) (J Int) ) 
    (=>
      (and
        (state A B C D E F G H I J)
        (and (not H) (not G) (not F) (not D) (= C true) (= B true) (not A) (not I))
      )
      false
    )
  )
)

(check-sat)
(exit)
